6613
1 1 1 0 1 1 1 1 1 0 0 0 0 0 0 0 1 0 0 0 
0 0 0 0 0 0 0 1 1 6 1 6 6 6 6 2 2 2 2 2 2 4 4 4 4 4 4 4 4 5 5 5 5 5 5 5 5 5 0 0 2 2 4 8 1 16 16 7 6 16 8 8 8 16 16 16 5 6 7 7 2 2 0 16 7 7 8 8 7 7 1 2 16 8 16 16 8 16 1 7 
